; --full-saturate-quant --inst-when=full-last-call --inst-no-entail --term-db-mode=relevant --random-seed=1 --lang=smt2 --tlimit 1
;(set-option :produce-unsat-cores true)
(set-logic ALL_SUPPORTED)
(declare-sort A$ 0)
(declare-sort Nat$ 0)
(declare-sort Nat_a_llist_fun$ 0)
(declare-sort A_llist_bool_fun$ 0)
(declare-sort A_llist_a_llist_fun$ 0)
(declare-sort Nat_a_llist_fun_set$ 0)
(declare-sort A_llist_set_a_llist_fun$ 0)
(declare-sort Nat_a_llist_fun_bool_fun$ 0)
(declare-sort A_llist_nat_a_llist_fun_fun$ 0)
(declare-sort A_llist_a_llist_bool_fun_fun$ 0)
(declare-sort Nat_a_llist_fun_set_nat_a_llist_fun_fun$ 0)
(declare-sort Nat_a_llist_fun_nat_a_llist_fun_bool_fun_fun$ 0)
(declare-sort A_llist_nat_a_llist_fun_fun_nat_a_llist_fun_fun$ 0)
(declare-sort A_llist_a_llist_nat_a_llist_fun_fun_nat_a_llist_fun_fun_fun$ 0)
(declare-sort A_llist_nat_a_llist_fun_fun_a_llist_nat_a_llist_fun_fun_fun$ 0)
(declare-sort A_llist_nat_a_llist_fun_fun_set_a_llist_nat_a_llist_fun_fun_fun$ 0)
(declare-sort A_llist_nat_a_llist_fun_fun_nat_a_llist_fun_fun_nat_a_llist_fun_fun$ 0)
(declare-sort A_llist_nat_a_llist_fun_fun_a_llist_nat_a_llist_fun_fun_bool_fun_fun$ 0)
(declare-sort A_llist_nat_a_llist_fun_fun_nat_a_llist_fun_fun_nat_a_llist_fun_fun_nat_a_llist_fun_fun$ 0)
(declare-sort A_llist_nat_a_llist_fun_fun_a_llist_nat_a_llist_fun_fun_fun_a_llist_nat_a_llist_fun_fun_fun$ 0)
(declare-sort A_llist_nat_a_llist_fun_fun_a_llist_nat_a_llist_fun_fun_nat_a_llist_fun_fun_nat_a_llist_fun_fun_fun$ 0)
(declare-sort A_llist_nat_a_llist_fun_fun_nat_a_llist_fun_fun_a_llist_nat_a_llist_fun_fun_nat_a_llist_fun_fun_fun$ 0)
(declare-sort A_llist_nat_a_llist_fun_fun_nat_a_llist_fun_fun_set_a_llist_nat_a_llist_fun_fun_nat_a_llist_fun_fun_fun$ 0)
(declare-sort A_llist_nat_a_llist_fun_fun_nat_a_llist_fun_fun_nat_a_llist_fun_fun_nat_a_llist_fun_fun_nat_a_llist_fun_fun$ 0)
(declare-sort A_llist_nat_a_llist_fun_fun_nat_a_llist_fun_fun_a_llist_nat_a_llist_fun_fun_nat_a_llist_fun_fun_bool_fun_fun$ 0)
(declare-sort A_llist_nat_a_llist_fun_fun_nat_a_llist_fun_fun_a_llist_nat_a_llist_fun_fun_nat_a_llist_fun_fun_nat_a_llist_fun_fun_nat_a_llist_fun_fun_fun$ 0)
(declare-sort A_llist_nat_a_llist_fun_fun_nat_a_llist_fun_fun_nat_a_llist_fun_fun_a_llist_nat_a_llist_fun_fun_nat_a_llist_fun_fun_nat_a_llist_fun_fun_fun$ 0)
(declare-sort A_llist_nat_a_llist_fun_fun_nat_a_llist_fun_fun_nat_a_llist_fun_fun_set_a_llist_nat_a_llist_fun_fun_nat_a_llist_fun_fun_nat_a_llist_fun_fun_fun$ 0)
(declare-sort A_llist_nat_a_llist_fun_fun_nat_a_llist_fun_fun_nat_a_llist_fun_fun_a_llist_nat_a_llist_fun_fun_nat_a_llist_fun_fun_nat_a_llist_fun_fun_bool_fun_fun$ 0)
(declare-sort A_llist_nat_a_llist_fun_fun_nat_a_llist_fun_fun_a_llist_nat_a_llist_fun_fun_nat_a_llist_fun_fun_fun_a_llist_nat_a_llist_fun_fun_nat_a_llist_fun_fun_fun$ 0)
(declare-sort A_llist_nat_a_llist_fun_fun_a_llist_nat_a_llist_fun_fun_bool_fun_fun_a_llist_nat_a_llist_fun_fun_a_llist_nat_a_llist_fun_fun_fun_a_llist_nat_a_llist_fun_fun_fun_fun$ 0)
(declare-sort A_llist_nat_a_llist_fun_fun_nat_a_llist_fun_fun_nat_a_llist_fun_fun_a_llist_nat_a_llist_fun_fun_nat_a_llist_fun_fun_nat_a_llist_fun_fun_nat_a_llist_fun_fun_nat_a_llist_fun_fun_fun$ 0)
(declare-sort A_llist_nat_a_llist_fun_fun_nat_a_llist_fun_fun_nat_a_llist_fun_fun_nat_a_llist_fun_fun_a_llist_nat_a_llist_fun_fun_nat_a_llist_fun_fun_nat_a_llist_fun_fun_nat_a_llist_fun_fun_fun$ 0)
(declare-sort A_llist_nat_a_llist_fun_fun_nat_a_llist_fun_fun_nat_a_llist_fun_fun_nat_a_llist_fun_fun_set_a_llist_nat_a_llist_fun_fun_nat_a_llist_fun_fun_nat_a_llist_fun_fun_nat_a_llist_fun_fun_fun$ 0)
(declare-sort A_llist_nat_a_llist_fun_fun_nat_a_llist_fun_fun_nat_a_llist_fun_fun_nat_a_llist_fun_fun_a_llist_nat_a_llist_fun_fun_nat_a_llist_fun_fun_nat_a_llist_fun_fun_nat_a_llist_fun_fun_bool_fun_fun$ 0)
(declare-sort A_llist_nat_a_llist_fun_fun_nat_a_llist_fun_fun_nat_a_llist_fun_fun_a_llist_nat_a_llist_fun_fun_nat_a_llist_fun_fun_nat_a_llist_fun_fun_fun_a_llist_nat_a_llist_fun_fun_nat_a_llist_fun_fun_nat_a_llist_fun_fun_fun$ 0)
(declare-sort A_llist_nat_a_llist_fun_fun_nat_a_llist_fun_fun_a_llist_nat_a_llist_fun_fun_nat_a_llist_fun_fun_bool_fun_fun_a_llist_nat_a_llist_fun_fun_nat_a_llist_fun_fun_a_llist_nat_a_llist_fun_fun_nat_a_llist_fun_fun_fun_a_llist_nat_a_llist_fun_fun_nat_a_llist_fun_fun_fun_fun$ 0)
(declare-sort A_llist_nat_a_llist_fun_fun_nat_a_llist_fun_fun_nat_a_llist_fun_fun_nat_a_llist_fun_fun_a_llist_nat_a_llist_fun_fun_nat_a_llist_fun_fun_nat_a_llist_fun_fun_nat_a_llist_fun_fun_fun_a_llist_nat_a_llist_fun_fun_nat_a_llist_fun_fun_nat_a_llist_fun_fun_nat_a_llist_fun_fun_fun$ 0)
(declare-sort A_llist_nat_a_llist_fun_fun_nat_a_llist_fun_fun_nat_a_llist_fun_fun_a_llist_nat_a_llist_fun_fun_nat_a_llist_fun_fun_nat_a_llist_fun_fun_bool_fun_fun_a_llist_nat_a_llist_fun_fun_nat_a_llist_fun_fun_nat_a_llist_fun_fun_a_llist_nat_a_llist_fun_fun_nat_a_llist_fun_fun_nat_a_llist_fun_fun_fun_a_llist_nat_a_llist_fun_fun_nat_a_llist_fun_fun_nat_a_llist_fun_fun_fun_fun$ 0)
(declare-sort A_llist_nat_a_llist_fun_fun_nat_a_llist_fun_fun_nat_a_llist_fun_fun_nat_a_llist_fun_fun_a_llist_nat_a_llist_fun_fun_nat_a_llist_fun_fun_nat_a_llist_fun_fun_nat_a_llist_fun_fun_bool_fun_fun_a_llist_nat_a_llist_fun_fun_nat_a_llist_fun_fun_nat_a_llist_fun_fun_nat_a_llist_fun_fun_a_llist_nat_a_llist_fun_fun_nat_a_llist_fun_fun_nat_a_llist_fun_fun_nat_a_llist_fun_fun_fun_a_llist_nat_a_llist_fun_fun_nat_a_llist_fun_fun_nat_a_llist_fun_fun_nat_a_llist_fun_fun_fun_fun$ 0)
(declare-codatatypes () ((A_llist$ (lNil$) (lCons$ (lhd$ A$) (ltl$ A_llist$)))))
(declare-fun f$ () A_llist_nat_a_llist_fun_fun_a_llist_nat_a_llist_fun_fun_fun$)
(declare-fun n$ () Nat$)
(declare-fun uu$ (A_llist$) A_llist_nat_a_llist_fun_fun_nat_a_llist_fun_fun$)
(declare-fun xs$ () A_llist$)
(declare-fun uua$ (A_llist_nat_a_llist_fun_fun_nat_a_llist_fun_fun_nat_a_llist_fun_fun_a_llist_nat_a_llist_fun_fun_nat_a_llist_fun_fun_nat_a_llist_fun_fun_fun$) A_llist_nat_a_llist_fun_fun_nat_a_llist_fun_fun_a_llist_nat_a_llist_fun_fun_nat_a_llist_fun_fun_nat_a_llist_fun_fun_nat_a_llist_fun_fun_fun$)
(declare-fun uub$ (A_llist_nat_a_llist_fun_fun_nat_a_llist_fun_fun_a_llist_nat_a_llist_fun_fun_nat_a_llist_fun_fun_fun$) A_llist_nat_a_llist_fun_fun_a_llist_nat_a_llist_fun_fun_nat_a_llist_fun_fun_nat_a_llist_fun_fun_fun$)
(declare-fun uuc$ (A_llist_nat_a_llist_fun_fun_a_llist_nat_a_llist_fun_fun_fun$) A_llist_a_llist_nat_a_llist_fun_fun_nat_a_llist_fun_fun_fun$)
(declare-fun uud$ (Nat_a_llist_fun$) A_llist_nat_a_llist_fun_fun_nat_a_llist_fun_fun$)
(declare-fun uue$ (Nat_a_llist_fun$) A_llist_nat_a_llist_fun_fun$)
(declare-fun uuf$ (A_llist_nat_a_llist_fun_fun_nat_a_llist_fun_fun_nat_a_llist_fun_fun_nat_a_llist_fun_fun_a_llist_nat_a_llist_fun_fun_nat_a_llist_fun_fun_nat_a_llist_fun_fun_nat_a_llist_fun_fun_fun$) A_llist_nat_a_llist_fun_fun_nat_a_llist_fun_fun_nat_a_llist_fun_fun_a_llist_nat_a_llist_fun_fun_nat_a_llist_fun_fun_nat_a_llist_fun_fun_nat_a_llist_fun_fun_nat_a_llist_fun_fun_fun$)
(declare-fun fixp$ (A_llist_nat_a_llist_fun_fun_set_a_llist_nat_a_llist_fun_fun_fun$) A_llist_nat_a_llist_fun_fun_a_llist_nat_a_llist_fun_fun_bool_fun_fun_a_llist_nat_a_llist_fun_fun_a_llist_nat_a_llist_fun_fun_fun_a_llist_nat_a_llist_fun_fun_fun_fun$)
(declare-fun lSup$ () A_llist_set_a_llist_fun$)
(declare-fun chain$ (Nat_a_llist_fun_nat_a_llist_fun_bool_fun_fun$ Nat_a_llist_fun_set$) Bool)
(declare-fun fixp$a (A_llist_nat_a_llist_fun_fun_nat_a_llist_fun_fun_nat_a_llist_fun_fun_set_a_llist_nat_a_llist_fun_fun_nat_a_llist_fun_fun_nat_a_llist_fun_fun_fun$) A_llist_nat_a_llist_fun_fun_nat_a_llist_fun_fun_nat_a_llist_fun_fun_a_llist_nat_a_llist_fun_fun_nat_a_llist_fun_fun_nat_a_llist_fun_fun_bool_fun_fun_a_llist_nat_a_llist_fun_fun_nat_a_llist_fun_fun_nat_a_llist_fun_fun_a_llist_nat_a_llist_fun_fun_nat_a_llist_fun_fun_nat_a_llist_fun_fun_fun_a_llist_nat_a_llist_fun_fun_nat_a_llist_fun_fun_nat_a_llist_fun_fun_fun_fun$)
(declare-fun fixp$b (A_llist_nat_a_llist_fun_fun_nat_a_llist_fun_fun_set_a_llist_nat_a_llist_fun_fun_nat_a_llist_fun_fun_fun$) A_llist_nat_a_llist_fun_fun_nat_a_llist_fun_fun_a_llist_nat_a_llist_fun_fun_nat_a_llist_fun_fun_bool_fun_fun_a_llist_nat_a_llist_fun_fun_nat_a_llist_fun_fun_a_llist_nat_a_llist_fun_fun_nat_a_llist_fun_fun_fun_a_llist_nat_a_llist_fun_fun_nat_a_llist_fun_fun_fun_fun$)
(declare-fun fixp$c (A_llist_nat_a_llist_fun_fun_nat_a_llist_fun_fun_nat_a_llist_fun_fun_nat_a_llist_fun_fun_set_a_llist_nat_a_llist_fun_fun_nat_a_llist_fun_fun_nat_a_llist_fun_fun_nat_a_llist_fun_fun_fun$) A_llist_nat_a_llist_fun_fun_nat_a_llist_fun_fun_nat_a_llist_fun_fun_nat_a_llist_fun_fun_a_llist_nat_a_llist_fun_fun_nat_a_llist_fun_fun_nat_a_llist_fun_fun_nat_a_llist_fun_fun_bool_fun_fun_a_llist_nat_a_llist_fun_fun_nat_a_llist_fun_fun_nat_a_llist_fun_fun_nat_a_llist_fun_fun_a_llist_nat_a_llist_fun_fun_nat_a_llist_fun_fun_nat_a_llist_fun_fun_nat_a_llist_fun_fun_fun_a_llist_nat_a_llist_fun_fun_nat_a_llist_fun_fun_nat_a_llist_fun_fun_nat_a_llist_fun_fun_fun_fun$)
(declare-fun mcont$ (A_llist_nat_a_llist_fun_fun_set_a_llist_nat_a_llist_fun_fun_fun$ A_llist_nat_a_llist_fun_fun_a_llist_nat_a_llist_fun_fun_bool_fun_fun$ Nat_a_llist_fun_set_nat_a_llist_fun_fun$ Nat_a_llist_fun_nat_a_llist_fun_bool_fun_fun$ A_llist_nat_a_llist_fun_fun_nat_a_llist_fun_fun$) Bool)
(declare-fun ldropn$ (Nat$) A_llist_a_llist_fun$)
(declare-fun mcont$a (A_llist_set_a_llist_fun$ A_llist_a_llist_bool_fun_fun$ Nat_a_llist_fun_set_nat_a_llist_fun_fun$ Nat_a_llist_fun_nat_a_llist_fun_bool_fun_fun$ A_llist_nat_a_llist_fun_fun$) Bool)
(declare-fun mcont$b (A_llist_nat_a_llist_fun_fun_nat_a_llist_fun_fun_set_a_llist_nat_a_llist_fun_fun_nat_a_llist_fun_fun_fun$ A_llist_nat_a_llist_fun_fun_nat_a_llist_fun_fun_a_llist_nat_a_llist_fun_fun_nat_a_llist_fun_fun_bool_fun_fun$ Nat_a_llist_fun_set_nat_a_llist_fun_fun$ Nat_a_llist_fun_nat_a_llist_fun_bool_fun_fun$ A_llist_nat_a_llist_fun_fun_nat_a_llist_fun_fun_nat_a_llist_fun_fun$) Bool)
(declare-fun member$ (Nat_a_llist_fun$ Nat_a_llist_fun_set$) Bool)
(declare-fun transp$ (Nat_a_llist_fun_nat_a_llist_fun_bool_fun_fun$) Bool)
(declare-fun fun_app$ (A_llist_nat_a_llist_fun_fun_nat_a_llist_fun_fun$ A_llist_nat_a_llist_fun_fun$) Nat_a_llist_fun$)
(declare-fun fun_lub$ (Nat_a_llist_fun_set_nat_a_llist_fun_fun$) A_llist_nat_a_llist_fun_fun_set_a_llist_nat_a_llist_fun_fun_fun$)
(declare-fun fun_ord$ (Nat_a_llist_fun_nat_a_llist_fun_bool_fun_fun$) A_llist_nat_a_llist_fun_fun_a_llist_nat_a_llist_fun_fun_bool_fun_fun$)
(declare-fun lprefix$ () A_llist_a_llist_bool_fun_fun$)
(declare-fun fun_app$a (A_llist_nat_a_llist_fun_fun$ A_llist$) Nat_a_llist_fun$)
(declare-fun fun_app$b (A_llist_nat_a_llist_fun_fun_a_llist_nat_a_llist_fun_fun_fun$ A_llist_nat_a_llist_fun_fun$) A_llist_nat_a_llist_fun_fun$)
(declare-fun fun_app$c (A_llist_a_llist_nat_a_llist_fun_fun_nat_a_llist_fun_fun_fun$ A_llist$) A_llist_nat_a_llist_fun_fun_nat_a_llist_fun_fun$)
(declare-fun fun_app$d (A_llist_nat_a_llist_fun_fun_nat_a_llist_fun_fun_nat_a_llist_fun_fun$ A_llist_nat_a_llist_fun_fun_nat_a_llist_fun_fun$) Nat_a_llist_fun$)
(declare-fun fun_app$e (A_llist_nat_a_llist_fun_fun_a_llist_nat_a_llist_fun_fun_nat_a_llist_fun_fun_nat_a_llist_fun_fun_fun$ A_llist_nat_a_llist_fun_fun$) A_llist_nat_a_llist_fun_fun_nat_a_llist_fun_fun_nat_a_llist_fun_fun$)
(declare-fun fun_app$f (A_llist_nat_a_llist_fun_fun_nat_a_llist_fun_fun_a_llist_nat_a_llist_fun_fun_nat_a_llist_fun_fun_fun$ A_llist_nat_a_llist_fun_fun_nat_a_llist_fun_fun$) A_llist_nat_a_llist_fun_fun_nat_a_llist_fun_fun$)
(declare-fun fun_app$g (A_llist_nat_a_llist_fun_fun_nat_a_llist_fun_fun_nat_a_llist_fun_fun_nat_a_llist_fun_fun$ A_llist_nat_a_llist_fun_fun_nat_a_llist_fun_fun_nat_a_llist_fun_fun$) Nat_a_llist_fun$)
(declare-fun fun_app$h (A_llist_nat_a_llist_fun_fun_nat_a_llist_fun_fun_a_llist_nat_a_llist_fun_fun_nat_a_llist_fun_fun_nat_a_llist_fun_fun_nat_a_llist_fun_fun_fun$ A_llist_nat_a_llist_fun_fun_nat_a_llist_fun_fun$) A_llist_nat_a_llist_fun_fun_nat_a_llist_fun_fun_nat_a_llist_fun_fun_nat_a_llist_fun_fun$)
(declare-fun fun_app$i (A_llist_nat_a_llist_fun_fun_nat_a_llist_fun_fun_nat_a_llist_fun_fun_a_llist_nat_a_llist_fun_fun_nat_a_llist_fun_fun_nat_a_llist_fun_fun_fun$ A_llist_nat_a_llist_fun_fun_nat_a_llist_fun_fun_nat_a_llist_fun_fun$) A_llist_nat_a_llist_fun_fun_nat_a_llist_fun_fun_nat_a_llist_fun_fun$)
(declare-fun fun_app$j (A_llist_nat_a_llist_fun_fun_nat_a_llist_fun_fun_nat_a_llist_fun_fun_nat_a_llist_fun_fun_nat_a_llist_fun_fun$ A_llist_nat_a_llist_fun_fun_nat_a_llist_fun_fun_nat_a_llist_fun_fun_nat_a_llist_fun_fun$) Nat_a_llist_fun$)
(declare-fun fun_app$k (A_llist_nat_a_llist_fun_fun_nat_a_llist_fun_fun_nat_a_llist_fun_fun_a_llist_nat_a_llist_fun_fun_nat_a_llist_fun_fun_nat_a_llist_fun_fun_nat_a_llist_fun_fun_nat_a_llist_fun_fun_fun$ A_llist_nat_a_llist_fun_fun_nat_a_llist_fun_fun_nat_a_llist_fun_fun$) A_llist_nat_a_llist_fun_fun_nat_a_llist_fun_fun_nat_a_llist_fun_fun_nat_a_llist_fun_fun_nat_a_llist_fun_fun$)
(declare-fun fun_app$l (A_llist_nat_a_llist_fun_fun_nat_a_llist_fun_fun_nat_a_llist_fun_fun_nat_a_llist_fun_fun_a_llist_nat_a_llist_fun_fun_nat_a_llist_fun_fun_nat_a_llist_fun_fun_nat_a_llist_fun_fun_fun$ A_llist_nat_a_llist_fun_fun_nat_a_llist_fun_fun_nat_a_llist_fun_fun_nat_a_llist_fun_fun$) A_llist_nat_a_llist_fun_fun_nat_a_llist_fun_fun_nat_a_llist_fun_fun_nat_a_llist_fun_fun$)
(declare-fun fun_app$m (A_llist_a_llist_fun$ A_llist$) A_llist$)
(declare-fun fun_app$n (Nat_a_llist_fun$ Nat$) A_llist$)
(declare-fun fun_app$o (A_llist_nat_a_llist_fun_fun_a_llist_nat_a_llist_fun_fun_fun_a_llist_nat_a_llist_fun_fun_fun$ A_llist_nat_a_llist_fun_fun_a_llist_nat_a_llist_fun_fun_fun$) A_llist_nat_a_llist_fun_fun$)
(declare-fun fun_app$p (A_llist_nat_a_llist_fun_fun_a_llist_nat_a_llist_fun_fun_bool_fun_fun_a_llist_nat_a_llist_fun_fun_a_llist_nat_a_llist_fun_fun_fun_a_llist_nat_a_llist_fun_fun_fun_fun$ A_llist_nat_a_llist_fun_fun_a_llist_nat_a_llist_fun_fun_bool_fun_fun$) A_llist_nat_a_llist_fun_fun_a_llist_nat_a_llist_fun_fun_fun_a_llist_nat_a_llist_fun_fun_fun$)
(declare-fun fun_app$q (A_llist_bool_fun$ A_llist$) Bool)
(declare-fun fun_app$r (A_llist_a_llist_bool_fun_fun$ A_llist$) A_llist_bool_fun$)
(declare-fun fun_app$s (Nat_a_llist_fun_bool_fun$ Nat_a_llist_fun$) Bool)
(declare-fun fun_app$t (Nat_a_llist_fun_nat_a_llist_fun_bool_fun_fun$ Nat_a_llist_fun$) Nat_a_llist_fun_bool_fun$)
(declare-fun fun_app$u (A_llist_nat_a_llist_fun_fun_nat_a_llist_fun_fun_nat_a_llist_fun_fun_a_llist_nat_a_llist_fun_fun_nat_a_llist_fun_fun_nat_a_llist_fun_fun_fun_a_llist_nat_a_llist_fun_fun_nat_a_llist_fun_fun_nat_a_llist_fun_fun_fun$ A_llist_nat_a_llist_fun_fun_nat_a_llist_fun_fun_nat_a_llist_fun_fun_a_llist_nat_a_llist_fun_fun_nat_a_llist_fun_fun_nat_a_llist_fun_fun_fun$) A_llist_nat_a_llist_fun_fun_nat_a_llist_fun_fun_nat_a_llist_fun_fun$)
(declare-fun fun_app$v (A_llist_nat_a_llist_fun_fun_nat_a_llist_fun_fun_nat_a_llist_fun_fun_a_llist_nat_a_llist_fun_fun_nat_a_llist_fun_fun_nat_a_llist_fun_fun_bool_fun_fun_a_llist_nat_a_llist_fun_fun_nat_a_llist_fun_fun_nat_a_llist_fun_fun_a_llist_nat_a_llist_fun_fun_nat_a_llist_fun_fun_nat_a_llist_fun_fun_fun_a_llist_nat_a_llist_fun_fun_nat_a_llist_fun_fun_nat_a_llist_fun_fun_fun_fun$ A_llist_nat_a_llist_fun_fun_nat_a_llist_fun_fun_nat_a_llist_fun_fun_a_llist_nat_a_llist_fun_fun_nat_a_llist_fun_fun_nat_a_llist_fun_fun_bool_fun_fun$) A_llist_nat_a_llist_fun_fun_nat_a_llist_fun_fun_nat_a_llist_fun_fun_a_llist_nat_a_llist_fun_fun_nat_a_llist_fun_fun_nat_a_llist_fun_fun_fun_a_llist_nat_a_llist_fun_fun_nat_a_llist_fun_fun_nat_a_llist_fun_fun_fun$)
(declare-fun fun_app$w (A_llist_nat_a_llist_fun_fun_nat_a_llist_fun_fun_a_llist_nat_a_llist_fun_fun_nat_a_llist_fun_fun_fun_a_llist_nat_a_llist_fun_fun_nat_a_llist_fun_fun_fun$ A_llist_nat_a_llist_fun_fun_nat_a_llist_fun_fun_a_llist_nat_a_llist_fun_fun_nat_a_llist_fun_fun_fun$) A_llist_nat_a_llist_fun_fun_nat_a_llist_fun_fun$)
(declare-fun fun_app$x (A_llist_nat_a_llist_fun_fun_nat_a_llist_fun_fun_a_llist_nat_a_llist_fun_fun_nat_a_llist_fun_fun_bool_fun_fun_a_llist_nat_a_llist_fun_fun_nat_a_llist_fun_fun_a_llist_nat_a_llist_fun_fun_nat_a_llist_fun_fun_fun_a_llist_nat_a_llist_fun_fun_nat_a_llist_fun_fun_fun_fun$ A_llist_nat_a_llist_fun_fun_nat_a_llist_fun_fun_a_llist_nat_a_llist_fun_fun_nat_a_llist_fun_fun_bool_fun_fun$) A_llist_nat_a_llist_fun_fun_nat_a_llist_fun_fun_a_llist_nat_a_llist_fun_fun_nat_a_llist_fun_fun_fun_a_llist_nat_a_llist_fun_fun_nat_a_llist_fun_fun_fun$)
(declare-fun fun_app$y (Nat_a_llist_fun_set_nat_a_llist_fun_fun$ Nat_a_llist_fun_set$) Nat_a_llist_fun$)
(declare-fun fun_app$z (A_llist_nat_a_llist_fun_fun_nat_a_llist_fun_fun_nat_a_llist_fun_fun_nat_a_llist_fun_fun_a_llist_nat_a_llist_fun_fun_nat_a_llist_fun_fun_nat_a_llist_fun_fun_nat_a_llist_fun_fun_fun_a_llist_nat_a_llist_fun_fun_nat_a_llist_fun_fun_nat_a_llist_fun_fun_nat_a_llist_fun_fun_fun$ A_llist_nat_a_llist_fun_fun_nat_a_llist_fun_fun_nat_a_llist_fun_fun_nat_a_llist_fun_fun_a_llist_nat_a_llist_fun_fun_nat_a_llist_fun_fun_nat_a_llist_fun_fun_nat_a_llist_fun_fun_fun$) A_llist_nat_a_llist_fun_fun_nat_a_llist_fun_fun_nat_a_llist_fun_fun_nat_a_llist_fun_fun$)
(declare-fun fun_lub$a (A_llist_set_a_llist_fun$) Nat_a_llist_fun_set_nat_a_llist_fun_fun$)
(declare-fun fun_lub$b (Nat_a_llist_fun_set_nat_a_llist_fun_fun$) A_llist_nat_a_llist_fun_fun_nat_a_llist_fun_fun_nat_a_llist_fun_fun_set_a_llist_nat_a_llist_fun_fun_nat_a_llist_fun_fun_nat_a_llist_fun_fun_fun$)
(declare-fun fun_lub$c (Nat_a_llist_fun_set_nat_a_llist_fun_fun$) A_llist_nat_a_llist_fun_fun_nat_a_llist_fun_fun_set_a_llist_nat_a_llist_fun_fun_nat_a_llist_fun_fun_fun$)
(declare-fun fun_lub$d (Nat_a_llist_fun_set_nat_a_llist_fun_fun$) A_llist_nat_a_llist_fun_fun_nat_a_llist_fun_fun_nat_a_llist_fun_fun_nat_a_llist_fun_fun_set_a_llist_nat_a_llist_fun_fun_nat_a_llist_fun_fun_nat_a_llist_fun_fun_nat_a_llist_fun_fun_fun$)
(declare-fun fun_ord$a (A_llist_a_llist_bool_fun_fun$) Nat_a_llist_fun_nat_a_llist_fun_bool_fun_fun$)
(declare-fun fun_ord$b (Nat_a_llist_fun_nat_a_llist_fun_bool_fun_fun$) A_llist_nat_a_llist_fun_fun_nat_a_llist_fun_fun_nat_a_llist_fun_fun_a_llist_nat_a_llist_fun_fun_nat_a_llist_fun_fun_nat_a_llist_fun_fun_bool_fun_fun$)
(declare-fun fun_ord$c (Nat_a_llist_fun_nat_a_llist_fun_bool_fun_fun$) A_llist_nat_a_llist_fun_fun_nat_a_llist_fun_fun_a_llist_nat_a_llist_fun_fun_nat_a_llist_fun_fun_bool_fun_fun$)
(declare-fun fun_ord$d (Nat_a_llist_fun_nat_a_llist_fun_bool_fun_fun$) A_llist_nat_a_llist_fun_fun_nat_a_llist_fun_fun_nat_a_llist_fun_fun_nat_a_llist_fun_fun_a_llist_nat_a_llist_fun_fun_nat_a_llist_fun_fun_nat_a_llist_fun_fun_nat_a_llist_fun_fun_bool_fun_fun$)
(declare-fun monotone$ (A_llist_nat_a_llist_fun_fun_a_llist_nat_a_llist_fun_fun_bool_fun_fun$ Nat_a_llist_fun_nat_a_llist_fun_bool_fun_fun$ A_llist_nat_a_llist_fun_fun_nat_a_llist_fun_fun$) Bool)
(declare-fun fun_app$aa (A_llist_nat_a_llist_fun_fun_nat_a_llist_fun_fun_nat_a_llist_fun_fun_nat_a_llist_fun_fun_a_llist_nat_a_llist_fun_fun_nat_a_llist_fun_fun_nat_a_llist_fun_fun_nat_a_llist_fun_fun_bool_fun_fun_a_llist_nat_a_llist_fun_fun_nat_a_llist_fun_fun_nat_a_llist_fun_fun_nat_a_llist_fun_fun_a_llist_nat_a_llist_fun_fun_nat_a_llist_fun_fun_nat_a_llist_fun_fun_nat_a_llist_fun_fun_fun_a_llist_nat_a_llist_fun_fun_nat_a_llist_fun_fun_nat_a_llist_fun_fun_nat_a_llist_fun_fun_fun_fun$ A_llist_nat_a_llist_fun_fun_nat_a_llist_fun_fun_nat_a_llist_fun_fun_nat_a_llist_fun_fun_a_llist_nat_a_llist_fun_fun_nat_a_llist_fun_fun_nat_a_llist_fun_fun_nat_a_llist_fun_fun_bool_fun_fun$) A_llist_nat_a_llist_fun_fun_nat_a_llist_fun_fun_nat_a_llist_fun_fun_nat_a_llist_fun_fun_a_llist_nat_a_llist_fun_fun_nat_a_llist_fun_fun_nat_a_llist_fun_fun_nat_a_llist_fun_fun_fun_a_llist_nat_a_llist_fun_fun_nat_a_llist_fun_fun_nat_a_llist_fun_fun_nat_a_llist_fun_fun_fun$)
(declare-fun monotone$a (A_llist_nat_a_llist_fun_fun_nat_a_llist_fun_fun_nat_a_llist_fun_fun_a_llist_nat_a_llist_fun_fun_nat_a_llist_fun_fun_nat_a_llist_fun_fun_bool_fun_fun$ Nat_a_llist_fun_nat_a_llist_fun_bool_fun_fun$ A_llist_nat_a_llist_fun_fun_nat_a_llist_fun_fun_nat_a_llist_fun_fun_nat_a_llist_fun_fun$) Bool)
(declare-fun monotone$b (A_llist_nat_a_llist_fun_fun_nat_a_llist_fun_fun_a_llist_nat_a_llist_fun_fun_nat_a_llist_fun_fun_bool_fun_fun$ Nat_a_llist_fun_nat_a_llist_fun_bool_fun_fun$ A_llist_nat_a_llist_fun_fun_nat_a_llist_fun_fun_nat_a_llist_fun_fun$) Bool)
(declare-fun monotone$c (A_llist_nat_a_llist_fun_fun_nat_a_llist_fun_fun_nat_a_llist_fun_fun_nat_a_llist_fun_fun_a_llist_nat_a_llist_fun_fun_nat_a_llist_fun_fun_nat_a_llist_fun_fun_nat_a_llist_fun_fun_bool_fun_fun$ Nat_a_llist_fun_nat_a_llist_fun_bool_fun_fun$ A_llist_nat_a_llist_fun_fun_nat_a_llist_fun_fun_nat_a_llist_fun_fun_nat_a_llist_fun_fun_nat_a_llist_fun_fun$) Bool)
(declare-fun monotone$d (A_llist_a_llist_bool_fun_fun$ Nat_a_llist_fun_nat_a_llist_fun_bool_fun_fun$ A_llist_nat_a_llist_fun_fun$) Bool)
(declare-fun lub_singleton$ (Nat_a_llist_fun_set_nat_a_llist_fun_fun$) Bool)
(declare-fun lstrict_prefix$ (A_llist$ A_llist$) Bool)
(assert (! (forall ((?v0 A_llist$) (?v1 A_llist_nat_a_llist_fun_fun$)) (! (= (fun_app$ (uu$ ?v0) ?v1) (fun_app$a (fun_app$b f$ ?v1) ?v0)) :pattern ((fun_app$ (uu$ ?v0) ?v1)))) :named a0))
(assert (! (forall ((?v0 A_llist_nat_a_llist_fun_fun_a_llist_nat_a_llist_fun_fun_fun$) (?v1 A_llist$) (?v2 A_llist_nat_a_llist_fun_fun$)) (! (= (fun_app$ (fun_app$c (uuc$ ?v0) ?v1) ?v2) (fun_app$a (fun_app$b ?v0 ?v2) ?v1)) :pattern ((fun_app$ (fun_app$c (uuc$ ?v0) ?v1) ?v2)))) :named a1))
(assert (! (forall ((?v0 A_llist_nat_a_llist_fun_fun_nat_a_llist_fun_fun_a_llist_nat_a_llist_fun_fun_nat_a_llist_fun_fun_fun$) (?v1 A_llist_nat_a_llist_fun_fun$) (?v2 A_llist_nat_a_llist_fun_fun_nat_a_llist_fun_fun$)) (! (= (fun_app$d (fun_app$e (uub$ ?v0) ?v1) ?v2) (fun_app$ (fun_app$f ?v0 ?v2) ?v1)) :pattern ((fun_app$d (fun_app$e (uub$ ?v0) ?v1) ?v2)))) :named a2))
(assert (! (forall ((?v0 A_llist_nat_a_llist_fun_fun_nat_a_llist_fun_fun_nat_a_llist_fun_fun_a_llist_nat_a_llist_fun_fun_nat_a_llist_fun_fun_nat_a_llist_fun_fun_fun$) (?v1 A_llist_nat_a_llist_fun_fun_nat_a_llist_fun_fun$) (?v2 A_llist_nat_a_llist_fun_fun_nat_a_llist_fun_fun_nat_a_llist_fun_fun$)) (! (= (fun_app$g (fun_app$h (uua$ ?v0) ?v1) ?v2) (fun_app$d (fun_app$i ?v0 ?v2) ?v1)) :pattern ((fun_app$g (fun_app$h (uua$ ?v0) ?v1) ?v2)))) :named a3))
(assert (! (forall ((?v0 A_llist_nat_a_llist_fun_fun_nat_a_llist_fun_fun_nat_a_llist_fun_fun_nat_a_llist_fun_fun_a_llist_nat_a_llist_fun_fun_nat_a_llist_fun_fun_nat_a_llist_fun_fun_nat_a_llist_fun_fun_fun$) (?v1 A_llist_nat_a_llist_fun_fun_nat_a_llist_fun_fun_nat_a_llist_fun_fun$) (?v2 A_llist_nat_a_llist_fun_fun_nat_a_llist_fun_fun_nat_a_llist_fun_fun_nat_a_llist_fun_fun$)) (! (= (fun_app$j (fun_app$k (uuf$ ?v0) ?v1) ?v2) (fun_app$g (fun_app$l ?v0 ?v2) ?v1)) :pattern ((fun_app$j (fun_app$k (uuf$ ?v0) ?v1) ?v2)))) :named a4))
(assert (! (forall ((?v0 Nat_a_llist_fun$) (?v1 A_llist$)) (! (= (fun_app$a (uue$ ?v0) ?v1) ?v0) :pattern ((fun_app$a (uue$ ?v0) ?v1)))) :named a5))
(assert (! (forall ((?v0 Nat_a_llist_fun$) (?v1 A_llist_nat_a_llist_fun_fun$)) (! (= (fun_app$ (uud$ ?v0) ?v1) ?v0) :pattern ((fun_app$ (uud$ ?v0) ?v1)))) :named a6))
(assert (! (not (= (fun_app$m (ldropn$ n$) xs$) (fun_app$n (fun_app$a (fun_app$o (fun_app$p (fixp$ (fun_lub$ (fun_lub$a lSup$))) (fun_ord$ (fun_ord$a lprefix$))) f$) xs$) n$))) :named a7))
(assert (! (forall ((?v0 A_llist$)) (fun_app$q (fun_app$r lprefix$ ?v0) ?v0)) :named a8))
(assert (! (forall ((?v0 A_llist$)) (fun_app$q (fun_app$r lprefix$ ?v0) ?v0)) :named a9))
(assert (! (forall ((?v0 Nat_a_llist_fun$) (?v1 Nat_a_llist_fun$) (?v2 Nat_a_llist_fun$)) (=> (and (fun_app$s (fun_app$t (fun_ord$a lprefix$) ?v0) ?v1) (fun_app$s (fun_app$t (fun_ord$a lprefix$) ?v1) ?v2)) (fun_app$s (fun_app$t (fun_ord$a lprefix$) ?v0) ?v2))) :named a10))
(assert (! (forall ((?v0 Nat_a_llist_fun$) (?v1 Nat_a_llist_fun$)) (=> (and (fun_app$s (fun_app$t (fun_ord$a lprefix$) ?v0) ?v1) (fun_app$s (fun_app$t (fun_ord$a lprefix$) ?v1) ?v0)) (= ?v0 ?v1))) :named a11))
(assert (! (forall ((?v0 A_llist$) (?v1 A_llist$)) (=> (and (fun_app$q (fun_app$r lprefix$ ?v0) ?v1) (fun_app$q (fun_app$r lprefix$ ?v1) ?v0)) (= ?v0 ?v1))) :named a12))
(assert (! (forall ((?v0 A_llist$) (?v1 A_llist$)) (=> (and (fun_app$q (fun_app$r lprefix$ ?v0) ?v1) (fun_app$q (fun_app$r lprefix$ ?v1) ?v0)) (= ?v0 ?v1))) :named a13))
(assert (! (forall ((?v0 A_llist$) (?v1 A_llist$) (?v2 A_llist$)) (=> (and (fun_app$q (fun_app$r lprefix$ ?v0) ?v1) (fun_app$q (fun_app$r lprefix$ ?v2) ?v1)) (or (fun_app$q (fun_app$r lprefix$ ?v0) ?v2) (fun_app$q (fun_app$r lprefix$ ?v2) ?v0)))) :named a14))
(assert (! (forall ((?v0 A_llist$) (?v1 A_llist$) (?v2 A_llist$)) (=> (and (fun_app$q (fun_app$r lprefix$ ?v0) ?v1) (fun_app$q (fun_app$r lprefix$ ?v1) ?v2)) (fun_app$q (fun_app$r lprefix$ ?v0) ?v2))) :named a15))
(assert (! (forall ((?v0 A_llist$) (?v1 A_llist$) (?v2 A_llist$)) (=> (and (fun_app$q (fun_app$r lprefix$ ?v0) ?v1) (fun_app$q (fun_app$r lprefix$ ?v1) ?v2)) (fun_app$q (fun_app$r lprefix$ ?v0) ?v2))) :named a16))
(assert (! (forall ((?v0 Nat_a_llist_fun$)) (fun_app$s (fun_app$t (fun_ord$a lprefix$) ?v0) ?v0)) :named a17))
(assert (! (forall ((?v0 A_llist$)) (monotone$ (fun_ord$ (fun_ord$a lprefix$)) (fun_ord$a lprefix$) (uu$ ?v0))) :named a18))
(assert (! (forall ((?v0 A_llist$) (?v1 A_llist$)) (! (= (lstrict_prefix$ ?v0 ?v1) (and (fun_app$q (fun_app$r lprefix$ ?v0) ?v1) (not (= ?v0 ?v1)))) :pattern ((lstrict_prefix$ ?v0 ?v1)))) :named a19))
(assert (! (forall ((?v0 A_llist_nat_a_llist_fun_fun_nat_a_llist_fun_fun_nat_a_llist_fun_fun_a_llist_nat_a_llist_fun_fun_nat_a_llist_fun_fun_nat_a_llist_fun_fun_fun$)) (=> (forall ((?v1 A_llist_nat_a_llist_fun_fun_nat_a_llist_fun_fun$)) (monotone$a (fun_ord$b (fun_ord$a lprefix$)) (fun_ord$a lprefix$) (fun_app$h (uua$ ?v0) ?v1))) (= (fun_app$u (fun_app$v (fixp$a (fun_lub$b (fun_lub$a lSup$))) (fun_ord$b (fun_ord$a lprefix$))) ?v0) (fun_app$i ?v0 (fun_app$u (fun_app$v (fixp$a (fun_lub$b (fun_lub$a lSup$))) (fun_ord$b (fun_ord$a lprefix$))) ?v0))))) :named a20))
(assert (! (forall ((?v0 A_llist_nat_a_llist_fun_fun_nat_a_llist_fun_fun_a_llist_nat_a_llist_fun_fun_nat_a_llist_fun_fun_fun$)) (=> (forall ((?v1 A_llist_nat_a_llist_fun_fun$)) (monotone$b (fun_ord$c (fun_ord$a lprefix$)) (fun_ord$a lprefix$) (fun_app$e (uub$ ?v0) ?v1))) (= (fun_app$w (fun_app$x (fixp$b (fun_lub$c (fun_lub$a lSup$))) (fun_ord$c (fun_ord$a lprefix$))) ?v0) (fun_app$f ?v0 (fun_app$w (fun_app$x (fixp$b (fun_lub$c (fun_lub$a lSup$))) (fun_ord$c (fun_ord$a lprefix$))) ?v0))))) :named a21))
(assert (! (forall ((?v0 A_llist_nat_a_llist_fun_fun_a_llist_nat_a_llist_fun_fun_fun$)) (=> (forall ((?v1 A_llist$)) (monotone$ (fun_ord$ (fun_ord$a lprefix$)) (fun_ord$a lprefix$) (fun_app$c (uuc$ ?v0) ?v1))) (= (fun_app$o (fun_app$p (fixp$ (fun_lub$ (fun_lub$a lSup$))) (fun_ord$ (fun_ord$a lprefix$))) ?v0) (fun_app$b ?v0 (fun_app$o (fun_app$p (fixp$ (fun_lub$ (fun_lub$a lSup$))) (fun_ord$ (fun_ord$a lprefix$))) ?v0))))) :named a22))
(assert (! (forall ((?v0 Nat_a_llist_fun_set$) (?v1 Nat_a_llist_fun$)) (=> (and (chain$ (fun_ord$a lprefix$) ?v0) (forall ((?v2 Nat_a_llist_fun$)) (=> (member$ ?v2 ?v0) (fun_app$s (fun_app$t (fun_ord$a lprefix$) ?v2) ?v1)))) (fun_app$s (fun_app$t (fun_ord$a lprefix$) (fun_app$y (fun_lub$a lSup$) ?v0)) ?v1))) :named a23))
(assert (! (forall ((?v0 Nat_a_llist_fun_set$) (?v1 Nat_a_llist_fun$)) (=> (and (chain$ (fun_ord$a lprefix$) ?v0) (member$ ?v1 ?v0)) (fun_app$s (fun_app$t (fun_ord$a lprefix$) ?v1) (fun_app$y (fun_lub$a lSup$) ?v0)))) :named a24))
(assert (! (forall ((?v0 A_llist_nat_a_llist_fun_fun_set_a_llist_nat_a_llist_fun_fun_fun$) (?v1 A_llist_nat_a_llist_fun_fun_a_llist_nat_a_llist_fun_fun_bool_fun_fun$) (?v2 Nat_a_llist_fun$)) (mcont$ ?v0 ?v1 (fun_lub$a lSup$) (fun_ord$a lprefix$) (uud$ ?v2))) :named a25))
(assert (! (forall ((?v0 A_llist_set_a_llist_fun$) (?v1 A_llist_a_llist_bool_fun_fun$) (?v2 Nat_a_llist_fun$)) (mcont$a ?v0 ?v1 (fun_lub$a lSup$) (fun_ord$a lprefix$) (uue$ ?v2))) :named a26))
(assert (! (lub_singleton$ (fun_lub$a lSup$)) :named a27))
(assert (! (forall ((?v0 A_llist_nat_a_llist_fun_fun_nat_a_llist_fun_fun_nat_a_llist_fun_fun_nat_a_llist_fun_fun_a_llist_nat_a_llist_fun_fun_nat_a_llist_fun_fun_nat_a_llist_fun_fun_nat_a_llist_fun_fun_fun$) (?v1 A_llist_nat_a_llist_fun_fun_nat_a_llist_fun_fun_nat_a_llist_fun_fun_nat_a_llist_fun_fun$) (?v2 A_llist_nat_a_llist_fun_fun_nat_a_llist_fun_fun_nat_a_llist_fun_fun_a_llist_nat_a_llist_fun_fun_nat_a_llist_fun_fun_nat_a_llist_fun_fun_bool_fun_fun$)) (=> (and (forall ((?v3 A_llist_nat_a_llist_fun_fun_nat_a_llist_fun_fun_nat_a_llist_fun_fun$)) (monotone$c (fun_ord$d (fun_ord$a lprefix$)) (fun_ord$a lprefix$) (fun_app$k (uuf$ ?v0) ?v3))) (and (= ?v1 (fun_app$z (fun_app$aa (fixp$c (fun_lub$d (fun_lub$a lSup$))) (fun_ord$d (fun_ord$a lprefix$))) ?v0)) (forall ((?v3 A_llist_nat_a_llist_fun_fun_nat_a_llist_fun_fun_nat_a_llist_fun_fun_nat_a_llist_fun_fun$)) (=> (monotone$a ?v2 (fun_ord$a lprefix$) ?v3) (monotone$a ?v2 (fun_ord$a lprefix$) (fun_app$l ?v0 ?v3)))))) (monotone$a ?v2 (fun_ord$a lprefix$) ?v1))) :named a28))
(assert (! (forall ((?v0 A_llist_nat_a_llist_fun_fun_nat_a_llist_fun_fun_nat_a_llist_fun_fun_a_llist_nat_a_llist_fun_fun_nat_a_llist_fun_fun_nat_a_llist_fun_fun_fun$) (?v1 A_llist_nat_a_llist_fun_fun_nat_a_llist_fun_fun_nat_a_llist_fun_fun$) (?v2 A_llist_nat_a_llist_fun_fun_nat_a_llist_fun_fun_a_llist_nat_a_llist_fun_fun_nat_a_llist_fun_fun_bool_fun_fun$)) (=> (and (forall ((?v3 A_llist_nat_a_llist_fun_fun_nat_a_llist_fun_fun$)) (monotone$a (fun_ord$b (fun_ord$a lprefix$)) (fun_ord$a lprefix$) (fun_app$h (uua$ ?v0) ?v3))) (and (= ?v1 (fun_app$u (fun_app$v (fixp$a (fun_lub$b (fun_lub$a lSup$))) (fun_ord$b (fun_ord$a lprefix$))) ?v0)) (forall ((?v3 A_llist_nat_a_llist_fun_fun_nat_a_llist_fun_fun_nat_a_llist_fun_fun$)) (=> (monotone$b ?v2 (fun_ord$a lprefix$) ?v3) (monotone$b ?v2 (fun_ord$a lprefix$) (fun_app$i ?v0 ?v3)))))) (monotone$b ?v2 (fun_ord$a lprefix$) ?v1))) :named a29))
(assert (! (forall ((?v0 A_llist_nat_a_llist_fun_fun_nat_a_llist_fun_fun_a_llist_nat_a_llist_fun_fun_nat_a_llist_fun_fun_fun$) (?v1 A_llist_nat_a_llist_fun_fun_nat_a_llist_fun_fun$) (?v2 A_llist_nat_a_llist_fun_fun_a_llist_nat_a_llist_fun_fun_bool_fun_fun$)) (=> (and (forall ((?v3 A_llist_nat_a_llist_fun_fun$)) (monotone$b (fun_ord$c (fun_ord$a lprefix$)) (fun_ord$a lprefix$) (fun_app$e (uub$ ?v0) ?v3))) (and (= ?v1 (fun_app$w (fun_app$x (fixp$b (fun_lub$c (fun_lub$a lSup$))) (fun_ord$c (fun_ord$a lprefix$))) ?v0)) (forall ((?v3 A_llist_nat_a_llist_fun_fun_nat_a_llist_fun_fun$)) (=> (monotone$ ?v2 (fun_ord$a lprefix$) ?v3) (monotone$ ?v2 (fun_ord$a lprefix$) (fun_app$f ?v0 ?v3)))))) (monotone$ ?v2 (fun_ord$a lprefix$) ?v1))) :named a30))
(assert (! (forall ((?v0 A_llist_nat_a_llist_fun_fun_a_llist_nat_a_llist_fun_fun_fun$) (?v1 A_llist_nat_a_llist_fun_fun$) (?v2 A_llist_a_llist_bool_fun_fun$)) (=> (and (forall ((?v3 A_llist$)) (monotone$ (fun_ord$ (fun_ord$a lprefix$)) (fun_ord$a lprefix$) (fun_app$c (uuc$ ?v0) ?v3))) (and (= ?v1 (fun_app$o (fun_app$p (fixp$ (fun_lub$ (fun_lub$a lSup$))) (fun_ord$ (fun_ord$a lprefix$))) ?v0)) (forall ((?v3 A_llist_nat_a_llist_fun_fun$)) (=> (monotone$d ?v2 (fun_ord$a lprefix$) ?v3) (monotone$d ?v2 (fun_ord$a lprefix$) (fun_app$b ?v0 ?v3)))))) (monotone$d ?v2 (fun_ord$a lprefix$) ?v1))) :named a31))
(assert (! (forall ((?v0 A_llist_nat_a_llist_fun_fun_nat_a_llist_fun_fun_nat_a_llist_fun_fun_a_llist_nat_a_llist_fun_fun_nat_a_llist_fun_fun_nat_a_llist_fun_fun_fun$) (?v1 A_llist_nat_a_llist_fun_fun_nat_a_llist_fun_fun_nat_a_llist_fun_fun$) (?v2 A_llist_nat_a_llist_fun_fun_nat_a_llist_fun_fun_set_a_llist_nat_a_llist_fun_fun_nat_a_llist_fun_fun_fun$) (?v3 A_llist_nat_a_llist_fun_fun_nat_a_llist_fun_fun_a_llist_nat_a_llist_fun_fun_nat_a_llist_fun_fun_bool_fun_fun$)) (=> (and (forall ((?v4 A_llist_nat_a_llist_fun_fun_nat_a_llist_fun_fun$)) (monotone$a (fun_ord$b (fun_ord$a lprefix$)) (fun_ord$a lprefix$) (fun_app$h (uua$ ?v0) ?v4))) (and (= ?v1 (fun_app$u (fun_app$v (fixp$a (fun_lub$b (fun_lub$a lSup$))) (fun_ord$b (fun_ord$a lprefix$))) ?v0)) (forall ((?v4 A_llist_nat_a_llist_fun_fun_nat_a_llist_fun_fun_nat_a_llist_fun_fun$)) (=> (mcont$b ?v2 ?v3 (fun_lub$a lSup$) (fun_ord$a lprefix$) ?v4) (mcont$b ?v2 ?v3 (fun_lub$a lSup$) (fun_ord$a lprefix$) (fun_app$i ?v0 ?v4)))))) (mcont$b ?v2 ?v3 (fun_lub$a lSup$) (fun_ord$a lprefix$) ?v1))) :named a32))
(assert (! (forall ((?v0 A_llist_nat_a_llist_fun_fun_nat_a_llist_fun_fun_a_llist_nat_a_llist_fun_fun_nat_a_llist_fun_fun_fun$) (?v1 A_llist_nat_a_llist_fun_fun_nat_a_llist_fun_fun$) (?v2 A_llist_nat_a_llist_fun_fun_set_a_llist_nat_a_llist_fun_fun_fun$) (?v3 A_llist_nat_a_llist_fun_fun_a_llist_nat_a_llist_fun_fun_bool_fun_fun$)) (=> (and (forall ((?v4 A_llist_nat_a_llist_fun_fun$)) (monotone$b (fun_ord$c (fun_ord$a lprefix$)) (fun_ord$a lprefix$) (fun_app$e (uub$ ?v0) ?v4))) (and (= ?v1 (fun_app$w (fun_app$x (fixp$b (fun_lub$c (fun_lub$a lSup$))) (fun_ord$c (fun_ord$a lprefix$))) ?v0)) (forall ((?v4 A_llist_nat_a_llist_fun_fun_nat_a_llist_fun_fun$)) (=> (mcont$ ?v2 ?v3 (fun_lub$a lSup$) (fun_ord$a lprefix$) ?v4) (mcont$ ?v2 ?v3 (fun_lub$a lSup$) (fun_ord$a lprefix$) (fun_app$f ?v0 ?v4)))))) (mcont$ ?v2 ?v3 (fun_lub$a lSup$) (fun_ord$a lprefix$) ?v1))) :named a33))
(assert (! (forall ((?v0 A_llist_nat_a_llist_fun_fun_a_llist_nat_a_llist_fun_fun_fun$) (?v1 A_llist_nat_a_llist_fun_fun$) (?v2 A_llist_set_a_llist_fun$) (?v3 A_llist_a_llist_bool_fun_fun$)) (=> (and (forall ((?v4 A_llist$)) (monotone$ (fun_ord$ (fun_ord$a lprefix$)) (fun_ord$a lprefix$) (fun_app$c (uuc$ ?v0) ?v4))) (and (= ?v1 (fun_app$o (fun_app$p (fixp$ (fun_lub$ (fun_lub$a lSup$))) (fun_ord$ (fun_ord$a lprefix$))) ?v0)) (forall ((?v4 A_llist_nat_a_llist_fun_fun$)) (=> (mcont$a ?v2 ?v3 (fun_lub$a lSup$) (fun_ord$a lprefix$) ?v4) (mcont$a ?v2 ?v3 (fun_lub$a lSup$) (fun_ord$a lprefix$) (fun_app$b ?v0 ?v4)))))) (mcont$a ?v2 ?v3 (fun_lub$a lSup$) (fun_ord$a lprefix$) ?v1))) :named a34))
(assert (! (transp$ (fun_ord$a lprefix$)) :named a35))
(assert (! (forall ((?v0 A_llist$)) (! (= (fun_app$q (fun_app$r lprefix$ lNil$) ?v0) true) :pattern ((fun_app$q (fun_app$r lprefix$ lNil$) ?v0)))) :named a36))
(assert (! (forall ((?v0 Nat$)) (! (= (fun_app$m (ldropn$ ?v0) lNil$) lNil$) :pattern ((ldropn$ ?v0)))) :named a37))
(check-sat)
;(get-unsat-core)
